p cnf 397 1578
c p weight -13 1 0
c p weight 13 -1 0
c p weight 17 6.12323399573676603586882014729198302312846062338790031898128063403419218957424163818359375E-17 0
c p weight -17 1 0
c p weight 18 1 0
c p weight -18 1 0
c p weight -15 1 0
c p weight 15 -1 0
c p weight -19 1 0
c p weight 19 -1 0
c p weight -21 1 0
c p weight 21 -1 0
c p weight 25 6.12323399573676603586882014729198302312846062338790031898128063403419218957424163818359375E-17 0
c p weight -25 1 0
c p weight 26 1 0
c p weight -26 1 0
c p weight -23 1 0
c p weight 23 -1 0
c p weight -27 1 0
c p weight 27 -1 0
c p weight -29 1 0
c p weight 29 -1 0
c p weight 33 6.12323399573676603586882014729198302312846062338790031898128063403419218957424163818359375E-17 0
c p weight -33 1 0
c p weight 34 1 0
c p weight -34 1 0
c p weight -31 1 0
c p weight 31 -1 0
c p weight -35 1 0
c p weight 35 -1 0
c p weight -37 1 0
c p weight 37 -1 0
c p weight 42 -0.27806687472731483889987202928750775754451751708984375 0
c p weight -42 1 0
c p weight 43 0.96056171752750163506107128341682255268096923828125 0
c p weight -43 1 0
c p weight -40 1 0
c p weight 40 -1 0
c p weight -44 1 0
c p weight 44 -1 0
c p weight -47 1 0
c p weight 47 -1 0
c p weight 51 6.12323399573676603586882014729198302312846062338790031898128063403419218957424163818359375E-17 0
c p weight -51 1 0
c p weight 52 1 0
c p weight -52 1 0
c p weight -49 1 0
c p weight 49 -1 0
c p weight -53 1 0
c p weight 53 -1 0
c p weight -55 1 0
c p weight 55 -1 0
c p weight 60 -0.27806687472731483889987202928750775754451751708984375 0
c p weight -60 1 0
c p weight 61 0.96056171752750163506107128341682255268096923828125 0
c p weight -61 1 0
c p weight -58 1 0
c p weight 58 -1 0
c p weight -62 1 0
c p weight 62 -1 0
c p weight -65 1 0
c p weight 65 -1 0
c p weight 69 6.12323399573676603586882014729198302312846062338790031898128063403419218957424163818359375E-17 0
c p weight -69 1 0
c p weight 70 1 0
c p weight -70 1 0
c p weight -67 1 0
c p weight 67 -1 0
c p weight 73 -0.79926710334653605638521867149393074214458465576171875 0
c p weight -73 1 0
c p weight 74 0.6009759541845560715245255778427235782146453857421875 0
c p weight -74 1 0
c p weight -71 1 0
c p weight 71 -1 0
c p weight 77 6.12323399573676603586882014729198302312846062338790031898128063403419218957424163818359375E-17 0
c p weight -77 1 0
c p weight 78 1 0
c p weight -78 1 0
c p weight -75 1 0
c p weight 75 -1 0
c p weight 81 3.0616169978683831411939265144290861071468186371292985459291458028019405901432037353515625E-16 0
c p weight -81 1 0
c p weight 82 1 0
c p weight -82 1 0
c p weight -79 1 0
c p weight 79 -1 0
c p weight -83 1 0
c p weight 83 -1 0
c p weight 87 6.12323399573676603586882014729198302312846062338790031898128063403419218957424163818359375E-17 0
c p weight -87 1 0
c p weight 88 1 0
c p weight -88 1 0
c p weight -85 1 0
c p weight 85 -1 0
c p weight -89 1 0
c p weight 89 -1 0
c p weight -91 1 0
c p weight 91 -1 0
c p weight 96 -0.27806687472731483889987202928750775754451751708984375 0
c p weight -96 1 0
c p weight 97 0.96056171752750163506107128341682255268096923828125 0
c p weight -97 1 0
c p weight -94 1 0
c p weight 94 -1 0
c p weight -98 1 0
c p weight 98 -1 0
c p weight -101 1 0
c p weight 101 -1 0
c p weight 106 -0.27806687472731483889987202928750775754451751708984375 0
c p weight -106 1 0
c p weight 107 0.96056171752750163506107128341682255268096923828125 0
c p weight -107 1 0
c p weight -104 1 0
c p weight 104 -1 0
c p weight -108 1 0
c p weight 108 -1 0
c p weight -111 1 0
c p weight 111 -1 0
c p weight 115 6.12323399573676603586882014729198302312846062338790031898128063403419218957424163818359375E-17 0
c p weight -115 1 0
c p weight 116 1 0
c p weight -116 1 0
c p weight -113 1 0
c p weight 113 -1 0
c p weight 119 -0.79926710334653605638521867149393074214458465576171875 0
c p weight -119 1 0
c p weight 120 0.6009759541845560715245255778427235782146453857421875 0
c p weight -120 1 0
c p weight -117 1 0
c p weight 117 -1 0
c p weight 123 6.12323399573676603586882014729198302312846062338790031898128063403419218957424163818359375E-17 0
c p weight -123 1 0
c p weight 124 1 0
c p weight -124 1 0
c p weight -121 1 0
c p weight 121 -1 0
c p weight 127 3.0616169978683831411939265144290861071468186371292985459291458028019405901432037353515625E-16 0
c p weight -127 1 0
c p weight 128 1 0
c p weight -128 1 0
c p weight -125 1 0
c p weight 125 -1 0
c p weight -129 1 0
c p weight 129 -1 0
c p weight 134 0.799275844709931515552625569398514926433563232421875 0
c p weight -134 1 0
c p weight 135 0.60096432844489655611397438406129367649555206298828125 0
c p weight -135 1 0
c p weight -132 1 0
c p weight 132 -1 0
c p weight -136 1 0
c p weight 136 -1 0
c p weight -139 1 0
c p weight 139 -1 0
c p weight 143 6.12323399573676603586882014729198302312846062338790031898128063403419218957424163818359375E-17 0
c p weight -143 1 0
c p weight 144 1 0
c p weight -144 1 0
c p weight -141 1 0
c p weight 141 -1 0
c p weight 147 -0.79926710334653605638521867149393074214458465576171875 0
c p weight -147 1 0
c p weight 148 0.6009759541845560715245255778427235782146453857421875 0
c p weight -148 1 0
c p weight -145 1 0
c p weight 145 -1 0
c p weight 151 6.12323399573676603586882014729198302312846062338790031898128063403419218957424163818359375E-17 0
c p weight -151 1 0
c p weight 152 1 0
c p weight -152 1 0
c p weight -149 1 0
c p weight 149 -1 0
c p weight 155 3.0616169978683831411939265144290861071468186371292985459291458028019405901432037353515625E-16 0
c p weight -155 1 0
c p weight 156 1 0
c p weight -156 1 0
c p weight -153 1 0
c p weight 153 -1 0
c p weight -157 1 0
c p weight 157 -1 0
c p weight 161 6.12323399573676603586882014729198302312846062338790031898128063403419218957424163818359375E-17 0
c p weight -161 1 0
c p weight 162 1 0
c p weight -162 1 0
c p weight -159 1 0
c p weight 159 -1 0
c p weight -163 1 0
c p weight 163 -1 0
c p weight -165 1 0
c p weight 165 -1 0
c p weight 170 -0.27806687472731483889987202928750775754451751708984375 0
c p weight -170 1 0
c p weight 171 0.96056171752750163506107128341682255268096923828125 0
c p weight -171 1 0
c p weight -168 1 0
c p weight 168 -1 0
c p weight -172 1 0
c p weight 172 -1 0
c p weight -175 1 0
c p weight 175 -1 0
c p weight 179 6.12323399573676603586882014729198302312846062338790031898128063403419218957424163818359375E-17 0
c p weight -179 1 0
c p weight 180 1 0
c p weight -180 1 0
c p weight -177 1 0
c p weight 177 -1 0
c p weight 183 -0.79926710334653605638521867149393074214458465576171875 0
c p weight -183 1 0
c p weight 184 0.6009759541845560715245255778427235782146453857421875 0
c p weight -184 1 0
c p weight -181 1 0
c p weight 181 -1 0
c p weight 187 6.12323399573676603586882014729198302312846062338790031898128063403419218957424163818359375E-17 0
c p weight -187 1 0
c p weight 188 1 0
c p weight -188 1 0
c p weight -185 1 0
c p weight 185 -1 0
c p weight 191 3.0616169978683831411939265144290861071468186371292985459291458028019405901432037353515625E-16 0
c p weight -191 1 0
c p weight 192 1 0
c p weight -192 1 0
c p weight -189 1 0
c p weight 189 -1 0
c p weight -193 1 0
c p weight 193 -1 0
c p weight -196 1 0
c p weight 196 -1 0
c p weight 201 0.799275844709931515552625569398514926433563232421875 0
c p weight -201 1 0
c p weight 202 0.60096432844489655611397438406129367649555206298828125 0
c p weight -202 1 0
c p weight -199 1 0
c p weight 199 -1 0
c p weight -203 1 0
c p weight 203 -1 0
c p weight -206 1 0
c p weight 206 -1 0
c p weight 211 0.799275844709931515552625569398514926433563232421875 0
c p weight -211 1 0
c p weight 212 0.60096432844489655611397438406129367649555206298828125 0
c p weight -212 1 0
c p weight -209 1 0
c p weight 209 -1 0
c p weight -213 1 0
c p weight 213 -1 0
c p weight -216 1 0
c p weight 216 -1 0
c p weight 220 6.12323399573676603586882014729198302312846062338790031898128063403419218957424163818359375E-17 0
c p weight -220 1 0
c p weight 221 1 0
c p weight -221 1 0
c p weight -218 1 0
c p weight 218 -1 0
c p weight 224 -0.27713396395205125433136572610237635672092437744140625 0
c p weight -224 1 0
c p weight 225 -0.96083128905350656534523068330599926412105560302734375 0
c p weight -225 1 0
c p weight -222 1 0
c p weight 222 -1 0
c p weight 228 6.12323399573676603586882014729198302312846062338790031898128063403419218957424163818359375E-17 0
c p weight -228 1 0
c p weight 229 1 0
c p weight -229 1 0
c p weight -226 1 0
c p weight 226 -1 0
c p weight 232 3.0616169978683831411939265144290861071468186371292985459291458028019405901432037353515625E-16 0
c p weight -232 1 0
c p weight 233 1 0
c p weight -233 1 0
c p weight -230 1 0
c p weight 230 -1 0
c p weight -234 1 0
c p weight 234 -1 0
c p weight 238 6.12323399573676603586882014729198302312846062338790031898128063403419218957424163818359375E-17 0
c p weight -238 1 0
c p weight 239 1 0
c p weight -239 1 0
c p weight -236 1 0
c p weight 236 -1 0
c p weight 242 -0.27713396395205125433136572610237635672092437744140625 0
c p weight -242 1 0
c p weight 243 -0.96083128905350656534523068330599926412105560302734375 0
c p weight -243 1 0
c p weight -240 1 0
c p weight 240 -1 0
c p weight 246 6.12323399573676603586882014729198302312846062338790031898128063403419218957424163818359375E-17 0
c p weight -246 1 0
c p weight 247 1 0
c p weight -247 1 0
c p weight -244 1 0
c p weight 244 -1 0
c p weight 250 3.0616169978683831411939265144290861071468186371292985459291458028019405901432037353515625E-16 0
c p weight -250 1 0
c p weight 251 1 0
c p weight -251 1 0
c p weight -248 1 0
c p weight 248 -1 0
c p weight 254 -0.27806687472731483889987202928750775754451751708984375 0
c p weight -254 1 0
c p weight 255 0.96056171752750163506107128341682255268096923828125 0
c p weight -255 1 0
c p weight -252 1 0
c p weight 252 -1 0
c p weight -256 1 0
c p weight 256 -1 0
c p weight -259 1 0
c p weight 259 -1 0
c p weight 263 6.12323399573676603586882014729198302312846062338790031898128063403419218957424163818359375E-17 0
c p weight -263 1 0
c p weight 264 1 0
c p weight -264 1 0
c p weight -261 1 0
c p weight 261 -1 0
c p weight 267 -0.79926710334653605638521867149393074214458465576171875 0
c p weight -267 1 0
c p weight 268 0.6009759541845560715245255778427235782146453857421875 0
c p weight -268 1 0
c p weight -265 1 0
c p weight 265 -1 0
c p weight 271 6.12323399573676603586882014729198302312846062338790031898128063403419218957424163818359375E-17 0
c p weight -271 1 0
c p weight 272 1 0
c p weight -272 1 0
c p weight -269 1 0
c p weight 269 -1 0
c p weight 275 3.0616169978683831411939265144290861071468186371292985459291458028019405901432037353515625E-16 0
c p weight -275 1 0
c p weight 276 1 0
c p weight -276 1 0
c p weight -273 1 0
c p weight 273 -1 0
c p weight -277 1 0
c p weight 277 -1 0
c p weight 282 0.799275844709931515552625569398514926433563232421875 0
c p weight -282 1 0
c p weight 283 0.60096432844489655611397438406129367649555206298828125 0
c p weight -283 1 0
c p weight -280 1 0
c p weight 280 -1 0
c p weight -284 1 0
c p weight 284 -1 0
c p weight -287 1 0
c p weight 287 -1 0
c p weight 291 6.12323399573676603586882014729198302312846062338790031898128063403419218957424163818359375E-17 0
c p weight -291 1 0
c p weight 292 1 0
c p weight -292 1 0
c p weight -289 1 0
c p weight 289 -1 0
c p weight 295 -0.27713396395205125433136572610237635672092437744140625 0
c p weight -295 1 0
c p weight 296 -0.96083128905350656534523068330599926412105560302734375 0
c p weight -296 1 0
c p weight -293 1 0
c p weight 293 -1 0
c p weight 299 6.12323399573676603586882014729198302312846062338790031898128063403419218957424163818359375E-17 0
c p weight -299 1 0
c p weight 300 1 0
c p weight -300 1 0
c p weight -297 1 0
c p weight 297 -1 0
c p weight 303 3.0616169978683831411939265144290861071468186371292985459291458028019405901432037353515625E-16 0
c p weight -303 1 0
c p weight 304 1 0
c p weight -304 1 0
c p weight -301 1 0
c p weight 301 -1 0
c p weight -305 1 0
c p weight 305 -1 0
c p weight 309 6.12323399573676603586882014729198302312846062338790031898128063403419218957424163818359375E-17 0
c p weight -309 1 0
c p weight 310 1 0
c p weight -310 1 0
c p weight -307 1 0
c p weight 307 -1 0
c p weight 313 -0.79926710334653605638521867149393074214458465576171875 0
c p weight -313 1 0
c p weight 314 0.6009759541845560715245255778427235782146453857421875 0
c p weight -314 1 0
c p weight -311 1 0
c p weight 311 -1 0
c p weight 317 6.12323399573676603586882014729198302312846062338790031898128063403419218957424163818359375E-17 0
c p weight -317 1 0
c p weight 318 1 0
c p weight -318 1 0
c p weight -315 1 0
c p weight 315 -1 0
c p weight 321 3.0616169978683831411939265144290861071468186371292985459291458028019405901432037353515625E-16 0
c p weight -321 1 0
c p weight 322 1 0
c p weight -322 1 0
c p weight -319 1 0
c p weight 319 -1 0
c p weight -323 1 0
c p weight 323 -1 0
c p weight 328 0.799275844709931515552625569398514926433563232421875 0
c p weight -328 1 0
c p weight 329 0.60096432844489655611397438406129367649555206298828125 0
c p weight -329 1 0
c p weight -326 1 0
c p weight 326 -1 0
c p weight -330 1 0
c p weight 330 -1 0
c p weight -333 1 0
c p weight 333 -1 0
c p weight 337 6.12323399573676603586882014729198302312846062338790031898128063403419218957424163818359375E-17 0
c p weight -337 1 0
c p weight 338 1 0
c p weight -338 1 0
c p weight -335 1 0
c p weight 335 -1 0
c p weight 341 -0.27713396395205125433136572610237635672092437744140625 0
c p weight -341 1 0
c p weight 342 -0.96083128905350656534523068330599926412105560302734375 0
c p weight -342 1 0
c p weight -339 1 0
c p weight 339 -1 0
c p weight 345 6.12323399573676603586882014729198302312846062338790031898128063403419218957424163818359375E-17 0
c p weight -345 1 0
c p weight 346 1 0
c p weight -346 1 0
c p weight -343 1 0
c p weight 343 -1 0
c p weight 349 3.0616169978683831411939265144290861071468186371292985459291458028019405901432037353515625E-16 0
c p weight -349 1 0
c p weight 350 1 0
c p weight -350 1 0
c p weight -347 1 0
c p weight 347 -1 0
c p weight -351 1 0
c p weight 351 -1 0
c p weight 356 0.799275844709931515552625569398514926433563232421875 0
c p weight -356 1 0
c p weight 357 0.60096432844489655611397438406129367649555206298828125 0
c p weight -357 1 0
c p weight -354 1 0
c p weight 354 -1 0
c p weight -358 1 0
c p weight 358 -1 0
c p weight -361 1 0
c p weight 361 -1 0
c p weight 365 6.12323399573676603586882014729198302312846062338790031898128063403419218957424163818359375E-17 0
c p weight -365 1 0
c p weight 366 1 0
c p weight -366 1 0
c p weight -363 1 0
c p weight 363 -1 0
c p weight 369 -0.27713396395205125433136572610237635672092437744140625 0
c p weight -369 1 0
c p weight 370 -0.96083128905350656534523068330599926412105560302734375 0
c p weight -370 1 0
c p weight -367 1 0
c p weight 367 -1 0
c p weight 373 6.12323399573676603586882014729198302312846062338790031898128063403419218957424163818359375E-17 0
c p weight -373 1 0
c p weight 374 1 0
c p weight -374 1 0
c p weight -371 1 0
c p weight 371 -1 0
c p weight 377 3.0616169978683831411939265144290861071468186371292985459291458028019405901432037353515625E-16 0
c p weight -377 1 0
c p weight 378 1 0
c p weight -378 1 0
c p weight -375 1 0
c p weight 375 -1 0
c p weight -379 1 0
c p weight 379 -1 0
c p weight 383 6.12323399573676603586882014729198302312846062338790031898128063403419218957424163818359375E-17 0
c p weight -383 1 0
c p weight 384 1 0
c p weight -384 1 0
c p weight -381 1 0
c p weight 381 -1 0
c p weight 387 -0.27713396395205125433136572610237635672092437744140625 0
c p weight -387 1 0
c p weight 388 -0.96083128905350656534523068330599926412105560302734375 0
c p weight -388 1 0
c p weight -385 1 0
c p weight 385 -1 0
c p weight 391 6.12323399573676603586882014729198302312846062338790031898128063403419218957424163818359375E-17 0
c p weight -391 1 0
c p weight 392 1 0
c p weight -392 1 0
c p weight -389 1 0
c p weight 389 -1 0
c p weight 395 3.0616169978683831411939265144290861071468186371292985459291458028019405901432037353515625E-16 0
c p weight -395 1 0
c p weight 396 1 0
c p weight -396 1 0
c p weight -393 1 0
c p weight 393 -1 0
c p weight 397 0.5 0
c p weight -397 1 0
397 0
-11 0
-9 0
-7 0
-5 0
-3 0
-1 0
-13 1 0
-13 2 0
13 -1 -2 0
14 1 -2 0
14 -1 2 0
-14 1 2 0
-14 -1 -2 0
-15 16 0
-15 14 0
-15 -1 0
15 -16 1 -14 0
16 -1 14 0
-16 1 14 0
-17 14 0
16 -17 -1 0
-16 -17 1 0
16 17 1 -14 0
-16 17 -1 -14 0
-18 14 0
16 -18 1 0
-16 -18 -1 0
16 18 -1 -14 0
-16 18 1 -14 0
-19 16 0
-19 14 0
19 -16 -14 0
20 16 -14 0
20 -16 14 0
-20 16 14 0
-20 -16 -14 0
-21 3 0
-21 4 0
21 -3 -4 0
22 3 -4 0
22 -3 4 0
-22 3 4 0
-22 -3 -4 0
-23 24 0
-23 22 0
-23 -3 0
23 -24 3 -22 0
24 -3 22 0
-24 3 22 0
-25 22 0
24 -25 -3 0
-24 -25 3 0
24 25 3 -22 0
-24 25 -3 -22 0
-26 22 0
24 -26 3 0
-24 -26 -3 0
24 26 -3 -22 0
-24 26 3 -22 0
-27 24 0
-27 22 0
27 -24 -22 0
28 24 -22 0
28 -24 22 0
-28 24 22 0
-28 -24 -22 0
-29 5 0
-29 6 0
29 -5 -6 0
30 5 -6 0
30 -5 6 0
-30 5 6 0
-30 -5 -6 0
-31 32 0
-31 30 0
-31 -5 0
31 -32 5 -30 0
32 -5 30 0
-32 5 30 0
-33 30 0
32 -33 -5 0
-32 -33 5 0
32 33 5 -30 0
-32 33 -5 -30 0
-34 30 0
32 -34 5 0
-32 -34 -5 0
32 34 -5 -30 0
-32 34 5 -30 0
-35 32 0
-35 30 0
35 -32 -30 0
36 32 -30 0
36 -32 30 0
-36 32 30 0
-36 -32 -30 0
-37 16 0
-37 36 0
-37 32 -20 0
-37 -32 20 0
37 -16 32 20 -36 0
37 -16 -32 -20 -36 0
39 16 -32 0
39 -16 32 0
-39 16 32 0
-39 -16 -32 0
38 20 -36 0
38 -20 36 0
-38 20 36 0
-38 -20 -36 0
-40 39 0
-40 36 0
-40 -41 0
40 41 -39 -36 0
41 39 -36 0
-41 39 36 0
-42 39 0
41 -42 -36 0
-41 -42 36 0
41 42 -39 36 0
-41 42 -39 -36 0
-43 39 0
41 -43 36 0
-41 -43 -36 0
41 43 -39 -36 0
-41 43 -39 36 0
-44 16 0
-44 41 0
-44 39 -38 0
-44 -39 38 0
44 -16 39 38 -41 0
44 -16 -39 -38 -41 0
46 16 -39 0
46 -16 39 0
-46 16 39 0
-46 -16 -39 0
45 38 -41 0
45 -38 41 0
-45 38 41 0
-45 -38 -41 0
-47 7 0
-47 8 0
47 -7 -8 0
48 7 -8 0
48 -7 8 0
-48 7 8 0
-48 -7 -8 0
-49 50 0
-49 48 0
-49 -7 0
49 -50 7 -48 0
50 -7 48 0
-50 7 48 0
-51 48 0
50 -51 -7 0
-50 -51 7 0
50 51 7 -48 0
-50 51 -7 -48 0
-52 48 0
50 -52 7 0
-50 -52 -7 0
50 52 -7 -48 0
-50 52 7 -48 0
-53 50 0
-53 48 0
53 -50 -48 0
54 50 -48 0
54 -50 48 0
-54 50 48 0
-54 -50 -48 0
-55 16 0
-55 54 0
-55 50 -45 0
-55 -50 45 0
55 -16 50 45 -54 0
55 -16 -50 -45 -54 0
57 16 -50 0
57 -16 50 0
-57 16 50 0
-57 -16 -50 0
56 45 -54 0
56 -45 54 0
-56 45 54 0
-56 -45 -54 0
-58 57 0
-58 54 0
-58 -59 0
58 59 -57 -54 0
59 57 -54 0
-59 57 54 0
-60 57 0
59 -60 -54 0
-59 -60 54 0
59 60 -57 54 0
-59 60 -57 -54 0
-61 57 0
59 -61 54 0
-59 -61 -54 0
59 61 -57 -54 0
-59 61 -57 54 0
-62 16 0
-62 59 0
-62 57 -56 0
-62 -57 56 0
62 -16 57 56 -59 0
62 -16 -57 -56 -59 0
64 16 -57 0
64 -16 57 0
-64 16 57 0
-64 -16 -57 0
63 56 -59 0
63 -56 59 0
-63 56 59 0
-63 -56 -59 0
-65 16 0
-65 63 0
65 -16 -63 0
66 16 -63 0
66 -16 63 0
-66 16 63 0
-66 -16 -63 0
-67 68 0
-67 66 0
-67 -16 0
67 -68 16 -66 0
68 -16 66 0
-68 16 66 0
-69 66 0
68 -69 -16 0
-68 -69 16 0
68 69 16 -66 0
-68 69 -16 -66 0
-70 66 0
68 -70 16 0
-68 -70 -16 0
68 70 -16 -66 0
-68 70 16 -66 0
-71 68 0
-71 66 0
-71 -72 0
71 72 -68 -66 0
72 68 -66 0
-72 68 66 0
-73 68 0
72 -73 -66 0
-72 -73 66 0
72 73 -68 66 0
-72 73 -68 -66 0
-74 68 0
72 -74 66 0
-72 -74 -66 0
72 74 -68 -66 0
-72 74 -68 66 0
-75 76 0
-75 72 0
-75 -68 0
75 -76 68 -72 0
76 -68 72 0
-76 68 72 0
-77 72 0
76 -77 -68 0
-76 -77 68 0
76 77 68 -72 0
-76 77 -68 -72 0
-78 72 0
76 -78 68 0
-76 -78 -68 0
76 78 -68 -72 0
-76 78 68 -72 0
-79 76 0
-79 72 0
-79 -80 0
79 80 -76 -72 0
80 76 -72 0
-80 76 72 0
-81 76 0
80 -81 -72 0
-80 -81 72 0
80 81 -76 72 0
-80 81 -76 -72 0
-82 76 0
80 -82 72 0
-80 -82 -72 0
80 82 -76 -72 0
-80 82 -76 72 0
-83 9 0
-83 10 0
83 -9 -10 0
84 9 -10 0
84 -9 10 0
-84 9 10 0
-84 -9 -10 0
-85 86 0
-85 84 0
-85 -9 0
85 -86 9 -84 0
86 -9 84 0
-86 9 84 0
-87 84 0
86 -87 -9 0
-86 -87 9 0
86 87 9 -84 0
-86 87 -9 -84 0
-88 84 0
86 -88 9 0
-86 -88 -9 0
86 88 -9 -84 0
-86 88 9 -84 0
-89 86 0
-89 84 0
89 -86 -84 0
90 86 -84 0
90 -86 84 0
-90 86 84 0
-90 -86 -84 0
-91 24 0
-91 90 0
-91 86 -28 0
-91 -86 28 0
91 -24 86 28 -90 0
91 -24 -86 -28 -90 0
93 24 -86 0
93 -24 86 0
-93 24 86 0
-93 -24 -86 0
92 28 -90 0
92 -28 90 0
-92 28 90 0
-92 -28 -90 0
-94 93 0
-94 90 0
-94 -95 0
94 95 -93 -90 0
95 93 -90 0
-95 93 90 0
-96 93 0
95 -96 -90 0
-95 -96 90 0
95 96 -93 90 0
-95 96 -93 -90 0
-97 93 0
95 -97 90 0
-95 -97 -90 0
95 97 -93 -90 0
-95 97 -93 90 0
-98 24 0
-98 95 0
-98 93 -92 0
-98 -93 92 0
98 -24 93 92 -95 0
98 -24 -93 -92 -95 0
100 24 -93 0
100 -24 93 0
-100 24 93 0
-100 -24 -93 0
99 92 -95 0
99 -92 95 0
-99 92 95 0
-99 -92 -95 0
-101 46 0
-101 95 0
-101 100 -41 0
-101 -100 41 0
101 -46 100 41 -95 0
101 -46 -100 -41 -95 0
103 46 -100 0
103 -46 100 0
-103 46 100 0
-103 -46 -100 0
102 41 -95 0
102 -41 95 0
-102 41 95 0
-102 -41 -95 0
-104 103 0
-104 95 0
-104 -105 0
104 105 -103 -95 0
105 103 -95 0
-105 103 95 0
-106 103 0
105 -106 -95 0
-105 -106 95 0
105 106 -103 95 0
-105 106 -103 -95 0
-107 103 0
105 -107 95 0
-105 -107 -95 0
105 107 -103 -95 0
-105 107 -103 95 0
-108 46 0
-108 105 0
-108 103 -102 0
-108 -103 102 0
108 -46 103 102 -105 0
108 -46 -103 -102 -105 0
110 46 -103 0
110 -46 103 0
-110 46 103 0
-110 -46 -103 0
109 102 -105 0
109 -102 105 0
-109 102 105 0
-109 -102 -105 0
-111 46 0
-111 109 0
111 -46 -109 0
112 46 -109 0
112 -46 109 0
-112 46 109 0
-112 -46 -109 0
-113 114 0
-113 112 0
-113 -46 0
113 -114 46 -112 0
114 -46 112 0
-114 46 112 0
-115 112 0
114 -115 -46 0
-114 -115 46 0
114 115 46 -112 0
-114 115 -46 -112 0
-116 112 0
114 -116 46 0
-114 -116 -46 0
114 116 -46 -112 0
-114 116 46 -112 0
-117 114 0
-117 112 0
-117 -118 0
117 118 -114 -112 0
118 114 -112 0
-118 114 112 0
-119 114 0
118 -119 -112 0
-118 -119 112 0
118 119 -114 112 0
-118 119 -114 -112 0
-120 114 0
118 -120 112 0
-118 -120 -112 0
118 120 -114 -112 0
-118 120 -114 112 0
-121 122 0
-121 118 0
-121 -114 0
121 -122 114 -118 0
122 -114 118 0
-122 114 118 0
-123 118 0
122 -123 -114 0
-122 -123 114 0
122 123 114 -118 0
-122 123 -114 -118 0
-124 118 0
122 -124 114 0
-122 -124 -114 0
122 124 -114 -118 0
-122 124 114 -118 0
-125 122 0
-125 118 0
-125 -126 0
125 126 -122 -118 0
126 122 -118 0
-126 122 118 0
-127 122 0
126 -127 -118 0
-126 -127 118 0
126 127 -122 118 0
-126 127 -122 -118 0
-128 122 0
126 -128 118 0
-126 -128 -118 0
126 128 -122 -118 0
-126 128 -122 118 0
-129 76 0
-129 126 0
-129 122 -80 0
-129 -122 80 0
129 -76 122 80 -126 0
129 -76 -122 -80 -126 0
131 76 -122 0
131 -76 122 0
-131 76 122 0
-131 -76 -122 0
130 80 -126 0
130 -80 126 0
-130 80 126 0
-130 -80 -126 0
-132 131 0
-132 126 0
-132 -133 0
132 133 -131 -126 0
133 131 -126 0
-133 131 126 0
-134 131 0
133 -134 -126 0
-133 -134 126 0
133 134 -131 126 0
-133 134 -131 -126 0
-135 131 0
133 -135 126 0
-133 -135 -126 0
133 135 -131 -126 0
-133 135 -131 126 0
-136 76 0
-136 133 0
-136 131 -130 0
-136 -131 130 0
136 -76 131 130 -133 0
136 -76 -131 -130 -133 0
138 76 -131 0
138 -76 131 0
-138 76 131 0
-138 -76 -131 0
137 130 -133 0
137 -130 133 0
-137 130 133 0
-137 -130 -133 0
-139 110 0
-139 105 0
139 -110 -105 0
140 110 -105 0
140 -110 105 0
-140 110 105 0
-140 -110 -105 0
-141 142 0
-141 140 0
-141 -110 0
141 -142 110 -140 0
142 -110 140 0
-142 110 140 0
-143 140 0
142 -143 -110 0
-142 -143 110 0
142 143 110 -140 0
-142 143 -110 -140 0
-144 140 0
142 -144 110 0
-142 -144 -110 0
142 144 -110 -140 0
-142 144 110 -140 0
-145 142 0
-145 140 0
-145 -146 0
145 146 -142 -140 0
146 142 -140 0
-146 142 140 0
-147 142 0
146 -147 -140 0
-146 -147 140 0
146 147 -142 140 0
-146 147 -142 -140 0
-148 142 0
146 -148 140 0
-146 -148 -140 0
146 148 -142 -140 0
-146 148 -142 140 0
-149 150 0
-149 146 0
-149 -142 0
149 -150 142 -146 0
150 -142 146 0
-150 142 146 0
-151 146 0
150 -151 -142 0
-150 -151 142 0
150 151 142 -146 0
-150 151 -142 -146 0
-152 146 0
150 -152 142 0
-150 -152 -142 0
150 152 -142 -146 0
-150 152 142 -146 0
-153 150 0
-153 146 0
-153 -154 0
153 154 -150 -146 0
154 150 -146 0
-154 150 146 0
-155 150 0
154 -155 -146 0
-154 -155 146 0
154 155 -150 146 0
-154 155 -150 -146 0
-156 150 0
154 -156 146 0
-154 -156 -146 0
154 156 -150 -146 0
-154 156 -150 146 0
-157 11 0
-157 12 0
157 -11 -12 0
158 11 -12 0
158 -11 12 0
-158 11 12 0
-158 -11 -12 0
-159 160 0
-159 158 0
-159 -11 0
159 -160 11 -158 0
160 -11 158 0
-160 11 158 0
-161 158 0
160 -161 -11 0
-160 -161 11 0
160 161 11 -158 0
-160 161 -11 -158 0
-162 158 0
160 -162 11 0
-160 -162 -11 0
160 162 -11 -158 0
-160 162 11 -158 0
-163 160 0
-163 158 0
163 -160 -158 0
164 160 -158 0
164 -160 158 0
-164 160 158 0
-164 -160 -158 0
-165 24 0
-165 164 0
-165 160 -99 0
-165 -160 99 0
165 -24 160 99 -164 0
165 -24 -160 -99 -164 0
167 24 -160 0
167 -24 160 0
-167 24 160 0
-167 -24 -160 0
166 99 -164 0
166 -99 164 0
-166 99 164 0
-166 -99 -164 0
-168 167 0
-168 164 0
-168 -169 0
168 169 -167 -164 0
169 167 -164 0
-169 167 164 0
-170 167 0
169 -170 -164 0
-169 -170 164 0
169 170 -167 164 0
-169 170 -167 -164 0
-171 167 0
169 -171 164 0
-169 -171 -164 0
169 171 -167 -164 0
-169 171 -167 164 0
-172 24 0
-172 169 0
-172 167 -166 0
-172 -167 166 0
172 -24 167 166 -169 0
172 -24 -167 -166 -169 0
174 24 -167 0
174 -24 167 0
-174 24 167 0
-174 -24 -167 0
173 166 -169 0
173 -166 169 0
-173 166 169 0
-173 -166 -169 0
-175 24 0
-175 173 0
175 -24 -173 0
176 24 -173 0
176 -24 173 0
-176 24 173 0
-176 -24 -173 0
-177 178 0
-177 176 0
-177 -24 0
177 -178 24 -176 0
178 -24 176 0
-178 24 176 0
-179 176 0
178 -179 -24 0
-178 -179 24 0
178 179 24 -176 0
-178 179 -24 -176 0
-180 176 0
178 -180 24 0
-178 -180 -24 0
178 180 -24 -176 0
-178 180 24 -176 0
-181 178 0
-181 176 0
-181 -182 0
181 182 -178 -176 0
182 178 -176 0
-182 178 176 0
-183 178 0
182 -183 -176 0
-182 -183 176 0
182 183 -178 176 0
-182 183 -178 -176 0
-184 178 0
182 -184 176 0
-182 -184 -176 0
182 184 -178 -176 0
-182 184 -178 176 0
-185 186 0
-185 182 0
-185 -178 0
185 -186 178 -182 0
186 -178 182 0
-186 178 182 0
-187 182 0
186 -187 -178 0
-186 -187 178 0
186 187 178 -182 0
-186 187 -178 -182 0
-188 182 0
186 -188 178 0
-186 -188 -178 0
186 188 -178 -182 0
-186 188 178 -182 0
-189 186 0
-189 182 0
-189 -190 0
189 190 -186 -182 0
190 186 -182 0
-190 186 182 0
-191 186 0
190 -191 -182 0
-190 -191 182 0
190 191 -186 182 0
-190 191 -186 -182 0
-192 186 0
190 -192 182 0
-190 -192 -182 0
190 192 -186 -182 0
-190 192 -186 182 0
-193 186 0
-193 154 0
-193 150 -190 0
-193 -150 190 0
193 -186 150 190 -154 0
193 -186 -150 -190 -154 0
195 186 -150 0
195 -186 150 0
-195 186 150 0
-195 -186 -150 0
194 190 -154 0
194 -190 154 0
-194 190 154 0
-194 -190 -154 0
-196 64 0
-196 169 0
-196 174 -59 0
-196 -174 59 0
196 -64 174 59 -169 0
196 -64 -174 -59 -169 0
198 64 -174 0
198 -64 174 0
-198 64 174 0
-198 -64 -174 0
197 59 -169 0
197 -59 169 0
-197 59 169 0
-197 -59 -169 0
-199 195 0
-199 154 0
-199 -200 0
199 200 -195 -154 0
200 195 -154 0
-200 195 154 0
-201 195 0
200 -201 -154 0
-200 -201 154 0
200 201 -195 154 0
-200 201 -195 -154 0
-202 195 0
200 -202 154 0
-200 -202 -154 0
200 202 -195 -154 0
-200 202 -195 154 0
-203 186 0
-203 200 0
-203 195 -194 0
-203 -195 194 0
203 -186 195 194 -200 0
203 -186 -195 -194 -200 0
205 186 -195 0
205 -186 195 0
-205 186 195 0
-205 -186 -195 0
204 194 -200 0
204 -194 200 0
-204 194 200 0
-204 -194 -200 0
-206 138 0
-206 200 0
-206 205 -133 0
-206 -205 133 0
206 -138 205 133 -200 0
206 -138 -205 -133 -200 0
208 138 -205 0
208 -138 205 0
-208 138 205 0
-208 -138 -205 0
207 133 -200 0
207 -133 200 0
-207 133 200 0
-207 -133 -200 0
-209 208 0
-209 200 0
-209 -210 0
209 210 -208 -200 0
210 208 -200 0
-210 208 200 0
-211 208 0
210 -211 -200 0
-210 -211 200 0
210 211 -208 200 0
-210 211 -208 -200 0
-212 208 0
210 -212 200 0
-210 -212 -200 0
210 212 -208 -200 0
-210 212 -208 200 0
-213 138 0
-213 210 0
-213 208 -207 0
-213 -208 207 0
213 -138 208 207 -210 0
213 -138 -208 -207 -210 0
215 138 -208 0
215 -138 208 0
-215 138 208 0
-215 -138 -208 0
214 207 -210 0
214 -207 210 0
-214 207 210 0
-214 -207 -210 0
-216 138 0
-216 214 0
216 -138 -214 0
217 138 -214 0
217 -138 214 0
-217 138 214 0
-217 -138 -214 0
-218 219 0
-218 217 0
-218 -138 0
218 -219 138 -217 0
219 -138 217 0
-219 138 217 0
-220 217 0
219 -220 -138 0
-219 -220 138 0
219 220 138 -217 0
-219 220 -138 -217 0
-221 217 0
219 -221 138 0
-219 -221 -138 0
219 221 -138 -217 0
-219 221 138 -217 0
-222 219 0
-222 217 0
-222 -223 0
222 223 -219 -217 0
223 219 -217 0
-223 219 217 0
-224 219 0
223 -224 -217 0
-223 -224 217 0
223 224 -219 217 0
-223 224 -219 -217 0
-225 219 0
223 -225 217 0
-223 -225 -217 0
223 225 -219 -217 0
-223 225 -219 217 0
-226 227 0
-226 223 0
-226 -219 0
226 -227 219 -223 0
227 -219 223 0
-227 219 223 0
-228 223 0
227 -228 -219 0
-227 -228 219 0
227 228 219 -223 0
-227 228 -219 -223 0
-229 223 0
227 -229 219 0
-227 -229 -219 0
227 229 -219 -223 0
-227 229 219 -223 0
-230 227 0
-230 223 0
-230 -231 0
230 231 -227 -223 0
231 227 -223 0
-231 227 223 0
-232 227 0
231 -232 -223 0
-231 -232 223 0
231 232 -227 223 0
-231 232 -227 -223 0
-233 227 0
231 -233 223 0
-231 -233 -223 0
231 233 -227 -223 0
-231 233 -227 223 0
-234 215 0
-234 210 0
234 -215 -210 0
235 215 -210 0
235 -215 210 0
-235 215 210 0
-235 -215 -210 0
-236 237 0
-236 235 0
-236 -215 0
236 -237 215 -235 0
237 -215 235 0
-237 215 235 0
-238 235 0
237 -238 -215 0
-237 -238 215 0
237 238 215 -235 0
-237 238 -215 -235 0
-239 235 0
237 -239 215 0
-237 -239 -215 0
237 239 -215 -235 0
-237 239 215 -235 0
-240 237 0
-240 235 0
-240 -241 0
240 241 -237 -235 0
241 237 -235 0
-241 237 235 0
-242 237 0
241 -242 -235 0
-241 -242 235 0
241 242 -237 235 0
-241 242 -237 -235 0
-243 237 0
241 -243 235 0
-241 -243 -235 0
241 243 -237 -235 0
-241 243 -237 235 0
-244 245 0
-244 241 0
-244 -237 0
244 -245 237 -241 0
245 -237 241 0
-245 237 241 0
-246 241 0
245 -246 -237 0
-245 -246 237 0
245 246 237 -241 0
-245 246 -237 -241 0
-247 241 0
245 -247 237 0
-245 -247 -237 0
245 247 -237 -241 0
-245 247 237 -241 0
-248 245 0
-248 241 0
-248 -249 0
248 249 -245 -241 0
249 245 -241 0
-249 245 241 0
-250 245 0
249 -250 -241 0
-249 -250 241 0
249 250 -245 241 0
-249 250 -245 -241 0
-251 245 0
249 -251 241 0
-249 -251 -241 0
249 251 -245 -241 0
-249 251 -245 241 0
-252 198 0
-252 169 0
-252 -253 0
252 253 -198 -169 0
253 198 -169 0
-253 198 169 0
-254 198 0
253 -254 -169 0
-253 -254 169 0
253 254 -198 169 0
-253 254 -198 -169 0
-255 198 0
253 -255 169 0
-253 -255 -169 0
253 255 -198 -169 0
-253 255 -198 169 0
-256 64 0
-256 253 0
-256 198 -197 0
-256 -198 197 0
256 -64 198 197 -253 0
256 -64 -198 -197 -253 0
258 64 -198 0
258 -64 198 0
-258 64 198 0
-258 -64 -198 0
257 197 -253 0
257 -197 253 0
-257 197 253 0
-257 -197 -253 0
-259 64 0
-259 257 0
259 -64 -257 0
260 64 -257 0
260 -64 257 0
-260 64 257 0
-260 -64 -257 0
-261 262 0
-261 260 0
-261 -64 0
261 -262 64 -260 0
262 -64 260 0
-262 64 260 0
-263 260 0
262 -263 -64 0
-262 -263 64 0
262 263 64 -260 0
-262 263 -64 -260 0
-264 260 0
262 -264 64 0
-262 -264 -64 0
262 264 -64 -260 0
-262 264 64 -260 0
-265 262 0
-265 260 0
-265 -266 0
265 266 -262 -260 0
266 262 -260 0
-266 262 260 0
-267 262 0
266 -267 -260 0
-266 -267 260 0
266 267 -262 260 0
-266 267 -262 -260 0
-268 262 0
266 -268 260 0
-266 -268 -260 0
266 268 -262 -260 0
-266 268 -262 260 0
-269 270 0
-269 266 0
-269 -262 0
269 -270 262 -266 0
270 -262 266 0
-270 262 266 0
-271 266 0
270 -271 -262 0
-270 -271 262 0
270 271 262 -266 0
-270 271 -262 -266 0
-272 266 0
270 -272 262 0
-270 -272 -262 0
270 272 -262 -266 0
-270 272 262 -266 0
-273 270 0
-273 266 0
-273 -274 0
273 274 -270 -266 0
274 270 -266 0
-274 270 266 0
-275 270 0
274 -275 -266 0
-274 -275 266 0
274 275 -270 266 0
-274 275 -270 -266 0
-276 270 0
274 -276 266 0
-274 -276 -266 0
274 276 -270 -266 0
-274 276 -270 266 0
-277 76 0
-277 274 0
-277 270 -137 0
-277 -270 137 0
277 -76 270 137 -274 0
277 -76 -270 -137 -274 0
279 76 -270 0
279 -76 270 0
-279 76 270 0
-279 -76 -270 0
278 137 -274 0
278 -137 274 0
-278 137 274 0
-278 -137 -274 0
-280 279 0
-280 274 0
-280 -281 0
280 281 -279 -274 0
281 279 -274 0
-281 279 274 0
-282 279 0
281 -282 -274 0
-281 -282 274 0
281 282 -279 274 0
-281 282 -279 -274 0
-283 279 0
281 -283 274 0
-281 -283 -274 0
281 283 -279 -274 0
-281 283 -279 274 0
-284 76 0
-284 281 0
-284 279 -278 0
-284 -279 278 0
284 -76 279 278 -281 0
284 -76 -279 -278 -281 0
286 76 -279 0
286 -76 279 0
-286 76 279 0
-286 -76 -279 0
285 278 -281 0
285 -278 281 0
-285 278 281 0
-285 -278 -281 0
-287 76 0
-287 285 0
287 -76 -285 0
288 76 -285 0
288 -76 285 0
-288 76 285 0
-288 -76 -285 0
-289 290 0
-289 288 0
-289 -76 0
289 -290 76 -288 0
290 -76 288 0
-290 76 288 0
-291 288 0
290 -291 -76 0
-290 -291 76 0
290 291 76 -288 0
-290 291 -76 -288 0
-292 288 0
290 -292 76 0
-290 -292 -76 0
290 292 -76 -288 0
-290 292 76 -288 0
-293 290 0
-293 288 0
-293 -294 0
293 294 -290 -288 0
294 290 -288 0
-294 290 288 0
-295 290 0
294 -295 -288 0
-294 -295 288 0
294 295 -290 288 0
-294 295 -290 -288 0
-296 290 0
294 -296 288 0
-294 -296 -288 0
294 296 -290 -288 0
-294 296 -290 288 0
-297 298 0
-297 294 0
-297 -290 0
297 -298 290 -294 0
298 -290 294 0
-298 290 294 0
-299 294 0
298 -299 -290 0
-298 -299 290 0
298 299 290 -294 0
-298 299 -290 -294 0
-300 294 0
298 -300 290 0
-298 -300 -290 0
298 300 -290 -294 0
-298 300 290 -294 0
-301 298 0
-301 294 0
-301 -302 0
301 302 -298 -294 0
302 298 -294 0
-302 298 294 0
-303 298 0
302 -303 -294 0
-302 -303 294 0
302 303 -298 294 0
-302 303 -298 -294 0
-304 298 0
302 -304 294 0
-302 -304 -294 0
302 304 -298 -294 0
-302 304 -298 294 0
-305 258 0
-305 253 0
305 -258 -253 0
306 258 -253 0
306 -258 253 0
-306 258 253 0
-306 -258 -253 0
-307 308 0
-307 306 0
-307 -258 0
307 -308 258 -306 0
308 -258 306 0
-308 258 306 0
-309 306 0
308 -309 -258 0
-308 -309 258 0
308 309 258 -306 0
-308 309 -258 -306 0
-310 306 0
308 -310 258 0
-308 -310 -258 0
308 310 -258 -306 0
-308 310 258 -306 0
-311 308 0
-311 306 0
-311 -312 0
311 312 -308 -306 0
312 308 -306 0
-312 308 306 0
-313 308 0
312 -313 -306 0
-312 -313 306 0
312 313 -308 306 0
-312 313 -308 -306 0
-314 308 0
312 -314 306 0
-312 -314 -306 0
312 314 -308 -306 0
-312 314 -308 306 0
-315 316 0
-315 312 0
-315 -308 0
315 -316 308 -312 0
316 -308 312 0
-316 308 312 0
-317 312 0
316 -317 -308 0
-316 -317 308 0
316 317 308 -312 0
-316 317 -308 -312 0
-318 312 0
316 -318 308 0
-316 -318 -308 0
316 318 -308 -312 0
-316 318 308 -312 0
-319 316 0
-319 312 0
-319 -320 0
319 320 -316 -312 0
320 316 -312 0
-320 316 312 0
-321 316 0
320 -321 -312 0
-320 -321 312 0
320 321 -316 312 0
-320 321 -316 -312 0
-322 316 0
320 -322 312 0
-320 -322 -312 0
320 322 -316 -312 0
-320 322 -316 312 0
-323 186 0
-323 320 0
-323 316 -204 0
-323 -316 204 0
323 -186 316 204 -320 0
323 -186 -316 -204 -320 0
325 186 -316 0
325 -186 316 0
-325 186 316 0
-325 -186 -316 0
324 204 -320 0
324 -204 320 0
-324 204 320 0
-324 -204 -320 0
-326 325 0
-326 320 0
-326 -327 0
326 327 -325 -320 0
327 325 -320 0
-327 325 320 0
-328 325 0
327 -328 -320 0
-327 -328 320 0
327 328 -325 320 0
-327 328 -325 -320 0
-329 325 0
327 -329 320 0
-327 -329 -320 0
327 329 -325 -320 0
-327 329 -325 320 0
-330 186 0
-330 327 0
-330 325 -324 0
-330 -325 324 0
330 -186 325 324 -327 0
330 -186 -325 -324 -327 0
332 186 -325 0
332 -186 325 0
-332 186 325 0
-332 -186 -325 0
331 324 -327 0
331 -324 327 0
-331 324 327 0
-331 -324 -327 0
-333 186 0
-333 331 0
333 -186 -331 0
334 186 -331 0
334 -186 331 0
-334 186 331 0
-334 -186 -331 0
-335 336 0
-335 334 0
-335 -186 0
335 -336 186 -334 0
336 -186 334 0
-336 186 334 0
-337 334 0
336 -337 -186 0
-336 -337 186 0
336 337 186 -334 0
-336 337 -186 -334 0
-338 334 0
336 -338 186 0
-336 -338 -186 0
336 338 -186 -334 0
-336 338 186 -334 0
-339 336 0
-339 334 0
-339 -340 0
339 340 -336 -334 0
340 336 -334 0
-340 336 334 0
-341 336 0
340 -341 -334 0
-340 -341 334 0
340 341 -336 334 0
-340 341 -336 -334 0
-342 336 0
340 -342 334 0
-340 -342 -334 0
340 342 -336 -334 0
-340 342 -336 334 0
-343 344 0
-343 340 0
-343 -336 0
343 -344 336 -340 0
344 -336 340 0
-344 336 340 0
-345 340 0
344 -345 -336 0
-344 -345 336 0
344 345 336 -340 0
-344 345 -336 -340 0
-346 340 0
344 -346 336 0
-344 -346 -336 0
344 346 -336 -340 0
-344 346 336 -340 0
-347 344 0
-347 340 0
-347 -348 0
347 348 -344 -340 0
348 344 -340 0
-348 344 340 0
-349 344 0
348 -349 -340 0
-348 -349 340 0
348 349 -344 340 0
-348 349 -344 -340 0
-350 344 0
348 -350 340 0
-348 -350 -340 0
348 350 -344 -340 0
-348 350 -344 340 0
-351 286 0
-351 327 0
-351 332 -281 0
-351 -332 281 0
351 -286 332 281 -327 0
351 -286 -332 -281 -327 0
353 286 -332 0
353 -286 332 0
-353 286 332 0
-353 -286 -332 0
352 281 -327 0
352 -281 327 0
-352 281 327 0
-352 -281 -327 0
-354 353 0
-354 327 0
-354 -355 0
354 355 -353 -327 0
355 353 -327 0
-355 353 327 0
-356 353 0
355 -356 -327 0
-355 -356 327 0
355 356 -353 327 0
-355 356 -353 -327 0
-357 353 0
355 -357 327 0
-355 -357 -327 0
355 357 -353 -327 0
-355 357 -353 327 0
-358 286 0
-358 355 0
-358 353 -352 0
-358 -353 352 0
358 -286 353 352 -355 0
358 -286 -353 -352 -355 0
360 286 -353 0
360 -286 353 0
-360 286 353 0
-360 -286 -353 0
359 352 -355 0
359 -352 355 0
-359 352 355 0
-359 -352 -355 0
-361 286 0
-361 359 0
361 -286 -359 0
362 286 -359 0
362 -286 359 0
-362 286 359 0
-362 -286 -359 0
-363 364 0
-363 362 0
-363 -286 0
363 -364 286 -362 0
364 -286 362 0
-364 286 362 0
-365 362 0
364 -365 -286 0
-364 -365 286 0
364 365 286 -362 0
-364 365 -286 -362 0
-366 362 0
364 -366 286 0
-364 -366 -286 0
364 366 -286 -362 0
-364 366 286 -362 0
-367 364 0
-367 362 0
-367 -368 0
367 368 -364 -362 0
368 364 -362 0
-368 364 362 0
-369 364 0
368 -369 -362 0
-368 -369 362 0
368 369 -364 362 0
-368 369 -364 -362 0
-370 364 0
368 -370 362 0
-368 -370 -362 0
368 370 -364 -362 0
-368 370 -364 362 0
-371 372 0
-371 368 0
-371 -364 0
371 -372 364 -368 0
372 -364 368 0
-372 364 368 0
-373 368 0
372 -373 -364 0
-372 -373 364 0
372 373 364 -368 0
-372 373 -364 -368 0
-374 368 0
372 -374 364 0
-372 -374 -364 0
372 374 -364 -368 0
-372 374 364 -368 0
-375 372 0
-375 368 0
-375 -376 0
375 376 -372 -368 0
376 372 -368 0
-376 372 368 0
-377 372 0
376 -377 -368 0
-376 -377 368 0
376 377 -372 368 0
-376 377 -372 -368 0
-378 372 0
376 -378 368 0
-376 -378 -368 0
376 378 -372 -368 0
-376 378 -372 368 0
-379 360 0
-379 355 0
379 -360 -355 0
380 360 -355 0
380 -360 355 0
-380 360 355 0
-380 -360 -355 0
-381 382 0
-381 380 0
-381 -360 0
381 -382 360 -380 0
382 -360 380 0
-382 360 380 0
-383 380 0
382 -383 -360 0
-382 -383 360 0
382 383 360 -380 0
-382 383 -360 -380 0
-384 380 0
382 -384 360 0
-382 -384 -360 0
382 384 -360 -380 0
-382 384 360 -380 0
-385 382 0
-385 380 0
-385 -386 0
385 386 -382 -380 0
386 382 -380 0
-386 382 380 0
-387 382 0
386 -387 -380 0
-386 -387 380 0
386 387 -382 380 0
-386 387 -382 -380 0
-388 382 0
386 -388 380 0
-386 -388 -380 0
386 388 -382 -380 0
-386 388 -382 380 0
-389 390 0
-389 386 0
-389 -382 0
389 -390 382 -386 0
390 -382 386 0
-390 382 386 0
-391 386 0
390 -391 -382 0
-390 -391 382 0
390 391 382 -386 0
-390 391 -382 -386 0
-392 386 0
390 -392 382 0
-390 -392 -382 0
390 392 -382 -386 0
-390 392 382 -386 0
-393 390 0
-393 386 0
-393 -394 0
393 394 -390 -386 0
394 390 -386 0
-394 390 386 0
-395 390 0
394 -395 -386 0
-394 -395 386 0
394 395 -390 386 0
-394 395 -390 -386 0
-396 390 0
394 -396 386 0
-394 -396 -386 0
394 396 -390 -386 0
-394 396 -390 386 0
-298 0
-344 0
-348 0
-227 0
-231 0
-372 0
-376 0
-245 0
-249 0
-390 0
-394 0
